NAME : portgen-50-301
COMMENT : portgen N=50, seed=301
TYPE : TSP
DIMENSION : 50
EDGE_WEIGHT_TYPE : EUC_2D
NODE_COORD_SECTION
1 368 2254
2 417 1409
3 2736 2382
4 1779 119
5 2174 2737
6 240 1950
7 2126 1418
8 742 1311
9 1728 2339
10 1507 2621
11 898 2389
12 2471 2481
13 2506 834
14 2669 82
15 1650 1835
16 904 852
17 2583 2453
18 126 1384
19 1214 881
20 1221 3119
21 1314 2350
22 1658 2765
23 238 2020
24 2877 1294
25 772 1194
26 1091 629
27 1449 1759
28 2415 2678
29 2834 1127
30 1283 1352
31 1168 897
32 2060 2218
33 1423 1053
34 292 2524
35 1179 1884
36 1596 434
37 1567 313
38 1530 269
39 940 711
40 65 2990
41 1162 1541
42 1962 298
43 667 7
44 1955 364
45 1029 2236
46 1092 1853
47 2865 2500
48 1523 879
49 783 1345
50 1235 3132
